results_rootrelaxation/bin012_070_013.srr.sol
solution status: optimal solution found
objective value:                     7.48318042813456
_var671_                            0.550458715596331 	(obj:0)
_var681_                           0.0397553516819579 	(obj:1)
_var706_                            0.342507645259939 	(obj:1)
_var724_                           0.0886850152905205 	(obj:0)
_var726_                            0.207951070336391 	(obj:0)
_var728_                             0.18348623853211 	(obj:1)
_var734_                             0.27217125382263 	(obj:1)
_var740_                            0.418960244648319 	(obj:1)
_var741_                            0.663608562691132 	(obj:0)
_var761_                            0.342507645259939 	(obj:1)
_var766_                           0.0122324159021403 	(obj:1)
_var771_                            0.195718654434251 	(obj:1)
_var777_                            0.437308868501529 	(obj:1)
_var780_                            0.299694189602446 	(obj:2)
_var784_                            0.152905198776759 	(obj:2)
_var786_                            0.299694189602446 	(obj:0)
_var795_                            0.119266055045872 	(obj:2)
_var801_                           0.0764525993883791 	(obj:1)
_var802_                            0.220183486238532 	(obj:1)
_var809_                             0.18960244648318 	(obj:0)
_var814_                             0.18348623853211 	(obj:1)
_var815_                            0.162079510703364 	(obj:2)
_var819_                            0.290519877675841 	(obj:0)
_var820_                            0.171253822629969 	(obj:1)
_var832_                             0.62691131498471 	(obj:0)
_var837_                            0.107033639143731 	(obj:0)
_var838_                            0.220183486238532 	(obj:1)
_var839_                            0.220183486238533 	(obj:1)
_var840_                            0.039755351681957 	(obj:0)
_var841_                            0.113149847094802 	(obj:0)
_var842_                           0.0152905198776759 	(obj:1)
_var845_                            0.122324159021407 	(obj:1)
_var847_                            0.128440366972476 	(obj:1)
_var849_                           0.0611620795107031 	(obj:1)
_var852_                           0.0519877675840978 	(obj:0)
_var853_                            0.348623853211009 	(obj:2)
_var855_                            0.290519877675841 	(obj:0)
_var856_                            0.137614678899083 	(obj:1)
_var858_                          0.00917431192660501 	(obj:1)
_var861_                            0.116207951070336 	(obj:1)
_var862_                            0.333333333333333 	(obj:0)
_var863_                            0.100917431192661 	(obj:0)
_var865_                            0.100917431192661 	(obj:1)
_var866_                            0.131498470948012 	(obj:0)
_var867_                           0.0978593272171255 	(obj:1)
_var874_                            0.373088685015291 	(obj:0)
_var877_                            0.412844036697247 	(obj:0)
_var878_                           0.0458715596330276 	(obj:2)
_var879_                            0.131498470948013 	(obj:1)
_var880_                           0.0366972477064221 	(obj:0)
_var886_                           0.0581039755351682 	(obj:1)
_var887_                            0.330275229357798 	(obj:1)
_var888_                            0.100917431192661 	(obj:2)
_var892_                           0.0428134556574927 	(obj:1)
_var895_                           0.0764525993883786 	(obj:3)
_var897_                           0.0366972477064215 	(obj:1)
_var898_                           0.0275229357798158 	(obj:1)
_var900_                           0.0244648318042816 	(obj:1)
_var902_                          0.00917431192660523 	(obj:2)
