results_rootrelaxation/bin012_070_013.srr.log
SCIP version 8.0.3.5 [precision: 8 byte] [memory: block] [mode: optimized] [LP solver: Soplex 6.0.1.3] [GitHash: 438792519e]
Copyright (c) 2002-2023 Zuse Institute Berlin (ZIB)

External libraries: 
  Readline 8.1         GNU library for command line editing (gnu.org/s/readline)
  Soplex 6.0.1.3       Linear Programming Solver developed at Zuse Institute Berlin (soplex.zib.de) [GitHash: 713be0fe]
  CppAD 20180000.0     Algorithmic Differentiation of C++ algorithms developed by B. Bell (github.com/coin-or/CppAD)
  ZLIB 1.2.11          General purpose compression library by J. Gailly and M. Adler (zlib.net)
  bliss 0.77           Computing Graph Automorphism Groups by T. Junttila and P. Kaski (www.tcs.hut.fi/Software/bliss/)

user parameter file <scip.set> not found - using default parameters

srr/relaxation = TRUE

read problem <instances/bin012_070_013.srr>
============

Original problem: 
original problem has 0 variables (0 bin, 0 int, 0 impl, 0 cont) and 77 constraints

presolving:
presolving (1 rounds: 1 fast, 1 medium, 1 exhaustive):
 0 deleted vars, 0 deleted constraints, 0 added constraints, 0 tightened bounds, 0 added holes, 0 changed sides, 0 changed coefficients
 0 implications, 0 cliques
presolved problem has 0 variables (0 bin, 0 int, 0 impl, 0 cont) and 77 constraints
     77 constraints of type <linear>
Presolving Time: 0.00

 time | node  | left  |LP iter|LP it/n|mem/heur|mdpt |vars |cons |rows |cuts |sepa|confs|strbr|  dualbound   | primalbound  |  gap   | compl. 
  0.0s|     1 |     0 |     1 |     - |   710k |   0 |   1 |  77 |  77 |   0 |  0 |   0 |   0 |      --      |      --      |    Inf | unknown
r 0.1s|     1 |     0 |   985 |     - |simplero|   0 | 648 |  77 |  77 |   0 |  0 |   0 |   0 |      --      | 2.847895e+01 |    Inf | unknown
r 0.1s|     1 |     0 |  1009 |     - |simplero|   0 | 659 |  77 |  77 |   0 |  0 |   0 |   0 |      --      | 2.749217e+01 |    Inf | unknown
r 0.1s|     1 |     0 |  1052 |     - |simplero|   0 | 670 |  77 |  77 |   0 |  0 |   0 |   0 |      --      | 2.543954e+01 |    Inf | unknown
r 0.1s|     1 |     0 |  1086 |     - |simplero|   0 | 681 |  77 |  77 |   0 |  0 |   0 |   0 |      --      | 2.284917e+01 |    Inf | unknown
r 0.1s|     1 |     0 |  1099 |     - |simplero|   0 | 681 |  77 |  77 |   0 |  0 |   0 |   0 |      --      | 2.266880e+01 |    Inf | unknown
r 0.1s|     1 |     0 |  1136 |     - |simplero|   0 | 692 |  77 |  77 |   0 |  0 |   0 |   0 |      --      | 2.128300e+01 |    Inf | unknown
r 0.1s|     1 |     0 |  1155 |     - |simplero|   0 | 692 |  77 |  77 |   0 |  0 |   0 |   0 |      --      | 2.112737e+01 |    Inf | unknown
r 0.1s|     1 |     0 |  1181 |     - |simplero|   0 | 703 |  77 |  77 |   0 |  0 |   0 |   0 |      --      | 1.994520e+01 |    Inf | unknown
r 0.1s|     1 |     0 |  1191 |     - |simplero|   0 | 703 |  77 |  77 |   0 |  0 |   0 |   0 |      --      | 1.991439e+01 |    Inf | unknown
r 0.1s|     1 |     0 |  1231 |     - |simplero|   0 | 714 |  77 |  77 |   0 |  0 |   0 |   0 |      --      | 1.854084e+01 |    Inf | unknown
r 0.1s|     1 |     0 |  1279 |     - |simplero|   0 | 714 |  77 |  77 |   0 |  0 |   0 |   0 |      --      | 1.793734e+01 |    Inf | unknown
r 0.1s|     1 |     0 |  1288 |     - |simplero|   0 | 714 |  77 |  77 |   0 |  0 |   0 |   0 |      --      | 1.789317e+01 |    Inf | unknown
r 0.1s|     1 |     0 |  1292 |     - |simplero|   0 | 714 |  77 |  77 |   0 |  0 |   0 |   0 |      --      | 1.788941e+01 |    Inf | unknown
r 0.1s|     1 |     0 |  1335 |     - |simplero|   0 | 725 |  77 |  77 |   0 |  0 |   0 |   0 |      --      | 1.679592e+01 |    Inf | unknown
 time | node  | left  |LP iter|LP it/n|mem/heur|mdpt |vars |cons |rows |cuts |sepa|confs|strbr|  dualbound   | primalbound  |  gap   | compl. 
r 0.1s|     1 |     0 |  1356 |     - |simplero|   0 | 725 |  77 |  77 |   0 |  0 |   0 |   0 |      --      | 1.666064e+01 |    Inf | unknown
r 0.1s|     1 |     0 |  1360 |     - |simplero|   0 | 725 |  77 |  77 |   0 |  0 |   0 |   0 |      --      | 1.665534e+01 |    Inf | unknown
r 0.1s|     1 |     0 |  1362 |     - |simplero|   0 | 725 |  77 |  77 |   0 |  0 |   0 |   0 |      --      | 1.664847e+01 |    Inf | unknown
r 0.1s|     1 |     0 |  1406 |     - |simplero|   0 | 736 |  77 |  77 |   0 |  0 |   0 |   0 |      --      | 1.552371e+01 |    Inf | unknown
r 0.1s|     1 |     0 |  1429 |     - |simplero|   0 | 736 |  77 |  77 |   0 |  0 |   0 |   0 |      --      | 1.529127e+01 |    Inf | unknown
r 0.1s|     1 |     0 |  1439 |     - |simplero|   0 | 736 |  77 |  77 |   0 |  0 |   0 |   0 |      --      | 1.524527e+01 |    Inf | unknown
r 0.1s|     1 |     0 |  1440 |     - |simplero|   0 | 736 |  77 |  77 |   0 |  0 |   0 |   0 |      --      | 1.524432e+01 |    Inf | unknown
r 0.1s|     1 |     0 |  1485 |     - |simplero|   0 | 747 |  77 |  77 |   0 |  0 |   0 |   0 |      --      | 1.422715e+01 |    Inf | unknown
r 0.1s|     1 |     0 |  1547 |     - |simplero|   0 | 747 |  77 |  77 |   0 |  0 |   0 |   0 |      --      | 1.370870e+01 |    Inf | unknown
r 0.1s|     1 |     0 |  1563 |     - |simplero|   0 | 747 |  77 |  77 |   0 |  0 |   0 |   0 |      --      | 1.364862e+01 |    Inf | unknown
r 0.1s|     1 |     0 |  1565 |     - |simplero|   0 | 747 |  77 |  77 |   0 |  0 |   0 |   0 |      --      | 1.364845e+01 |    Inf | unknown
r 0.1s|     1 |     0 |  1626 |     - |simplero|   0 | 758 |  77 |  77 |   0 |  0 |   0 |   0 |      --      | 1.234827e+01 |    Inf | unknown
r 0.1s|     1 |     0 |  1640 |     - |simplero|   0 | 758 |  77 |  77 |   0 |  0 |   0 |   0 |      --      | 1.229957e+01 |    Inf | unknown
r 0.1s|     1 |     0 |  1685 |     - |simplero|   0 | 769 |  77 |  77 |   0 |  0 |   0 |   0 |      --      | 1.154413e+01 |    Inf | unknown
r 0.1s|     1 |     0 |  1710 |     - |simplero|   0 | 769 |  77 |  77 |   0 |  0 |   0 |   0 |      --      | 1.144631e+01 |    Inf | unknown
 time | node  | left  |LP iter|LP it/n|mem/heur|mdpt |vars |cons |rows |cuts |sepa|confs|strbr|  dualbound   | primalbound  |  gap   | compl. 
r 0.1s|     1 |     0 |  1753 |     - |simplero|   0 | 780 |  77 |  77 |   0 |  0 |   0 |   0 |      --      | 1.091394e+01 |    Inf | unknown
r 0.1s|     1 |     0 |  1765 |     - |simplero|   0 | 780 |  77 |  77 |   0 |  0 |   0 |   0 |      --      | 1.087325e+01 |    Inf | unknown
  0.1s|     1 |     0 |  1774 |     - |  3617k |   0 | 780 |  77 |  77 |   0 |  0 |   0 |   0 |      --      | 1.087325e+01 |    Inf | unknown
r 0.1s|     1 |     0 |  1774 |     - |simplero|   0 | 780 |  77 |  77 |   0 |  0 |   0 |   0 |      --      | 1.084129e+01 |    Inf | unknown
r 0.1s|     1 |     0 |  1776 |     - |simplero|   0 | 780 |  77 |  77 |   0 |  0 |   0 |   0 |      --      | 1.083765e+01 |    Inf | unknown
r 0.1s|     1 |     0 |  1804 |     - |simplero|   0 | 791 |  77 |  77 |   0 |  0 |   0 |   0 |      --      | 1.033738e+01 |    Inf | unknown
r 0.1s|     1 |     0 |  1834 |     - |simplero|   0 | 791 |  77 |  77 |   0 |  0 |   0 |   0 |      --      | 9.977166e+00 |    Inf | unknown
r 0.1s|     1 |     0 |  1836 |     - |simplero|   0 | 791 |  77 |  77 |   0 |  0 |   0 |   0 |      --      | 9.974771e+00 |    Inf | unknown
r 0.1s|     1 |     0 |  1873 |     - |simplero|   0 | 802 |  77 |  77 |   0 |  0 |   0 |   0 |      --      | 9.317721e+00 |    Inf | unknown
r 0.1s|     1 |     0 |  1880 |     - |simplero|   0 | 802 |  77 |  77 |   0 |  0 |   0 |   0 |      --      | 9.308951e+00 |    Inf | unknown
r 0.1s|     1 |     0 |  1881 |     - |simplero|   0 | 802 |  77 |  77 |   0 |  0 |   0 |   0 |      --      | 9.308885e+00 |    Inf | unknown
r 0.1s|     1 |     0 |  1899 |     - |simplero|   0 | 813 |  77 |  77 |   0 |  0 |   0 |   0 |      --      | 9.093442e+00 |    Inf | unknown
r 0.1s|     1 |     0 |  1908 |     - |simplero|   0 | 813 |  77 |  77 |   0 |  0 |   0 |   0 |      --      | 9.055164e+00 |    Inf | unknown
r 0.1s|     1 |     0 |  1947 |     - |simplero|   0 | 824 |  77 |  77 |   0 |  0 |   0 |   0 |      --      | 8.705871e+00 |    Inf | unknown
r 0.1s|     1 |     0 |  1966 |     - |simplero|   0 | 824 |  77 |  77 |   0 |  0 |   0 |   0 |      --      | 8.689427e+00 |    Inf | unknown
 time | node  | left  |LP iter|LP it/n|mem/heur|mdpt |vars |cons |rows |cuts |sepa|confs|strbr|  dualbound   | primalbound  |  gap   | compl. 
r 0.1s|     1 |     0 |  2010 |     - |simplero|   0 | 834 |  77 |  77 |   0 |  0 |   0 |   0 |      --      | 8.412196e+00 |    Inf | unknown
r 0.1s|     1 |     0 |  2025 |     - |simplero|   0 | 834 |  77 |  77 |   0 |  0 |   0 |   0 |      --      | 8.387630e+00 |    Inf | unknown
r 0.1s|     1 |     0 |  2049 |     - |simplero|   0 | 845 |  77 |  77 |   0 |  0 |   0 |   0 |      --      | 8.138164e+00 |    Inf | unknown
r 0.1s|     1 |     0 |  2060 |     - |simplero|   0 | 845 |  77 |  77 |   0 |  0 |   0 |   0 |      --      | 8.081155e+00 |    Inf | unknown
r 0.1s|     1 |     0 |  2087 |     - |simplero|   0 | 856 |  77 |  77 |   0 |  0 |   0 |   0 |      --      | 7.880662e+00 |    Inf | unknown
r 0.1s|     1 |     0 |  2091 |     - |simplero|   0 | 856 |  77 |  77 |   0 |  0 |   0 |   0 |      --      | 7.878545e+00 |    Inf | unknown
r 0.1s|     1 |     0 |  2121 |     - |simplero|   0 | 867 |  77 |  77 |   0 |  0 |   0 |   0 |      --      | 7.770630e+00 |    Inf | unknown
r 0.1s|     1 |     0 |  2128 |     - |simplero|   0 | 867 |  77 |  77 |   0 |  0 |   0 |   0 |      --      | 7.766344e+00 |    Inf | unknown
r 0.1s|     1 |     0 |  2148 |     - |simplero|   0 | 878 |  77 |  77 |   0 |  0 |   0 |   0 |      --      | 7.629310e+00 |    Inf | unknown
r 0.1s|     1 |     0 |  2158 |     - |simplero|   0 | 878 |  77 |  77 |   0 |  0 |   0 |   0 |      --      | 7.608338e+00 |    Inf | unknown
r 0.1s|     1 |     0 |  2179 |     - |simplero|   0 | 885 |  77 |  77 |   0 |  0 |   0 |   0 |      --      | 7.576370e+00 |    Inf | unknown
r 0.1s|     1 |     0 |  2182 |     - |simplero|   0 | 885 |  77 |  77 |   0 |  0 |   0 |   0 |      --      | 7.574026e+00 |    Inf | unknown
r 0.1s|     1 |     0 |  2198 |     - |simplero|   0 | 890 |  77 |  77 |   0 |  0 |   0 |   0 |      --      | 7.504702e+00 |    Inf | unknown
r 0.1s|     1 |     0 |  2211 |     - |simplero|   0 | 897 |  77 |  77 |   0 |  0 |   0 |   0 |      --      | 7.486085e+00 |    Inf | unknown
r 0.1s|     1 |     0 |  2217 |     - |simplero|   0 | 897 |  77 |  77 |   0 |  0 |   0 |   0 |      --      | 7.484932e+00 |    Inf | unknown
 time | node  | left  |LP iter|LP it/n|mem/heur|mdpt |vars |cons |rows |cuts |sepa|confs|strbr|  dualbound   | primalbound  |  gap   | compl. 
r 0.1s|     1 |     0 |  2222 |     - |simplero|   0 | 900 |  77 |  77 |   0 |  0 |   0 |   0 |      --      | 7.483461e+00 |    Inf | unknown
r 0.1s|     1 |     0 |  2224 |     - |simplero|   0 | 901 |  77 |  77 |   0 |  0 |   0 |   0 |      --      | 7.483221e+00 |    Inf | unknown
r 0.1s|     1 |     0 |  2227 |     - |simplero|   0 | 903 |  77 |  77 |   0 |  0 |   0 |   0 |      --      | 7.483180e+00 |    Inf | unknown
  0.1s|     1 |     0 |  2227 |     - |  4431k |   0 | 903 |  77 |  77 |   0 |  0 |   0 |   0 | 7.483180e+00 | 7.483180e+00 |   0.00%| unknown
  0.1s|     1 |     0 |  2227 |     - |  4431k |   0 | 903 |  77 |  77 |   0 |  0 |   0 |   0 | 7.483180e+00 | 7.483180e+00 |   0.00%| unknown

SCIP Status        : problem is solved [optimal solution found]
Solving Time (sec) : 0.12
Solving Nodes      : 1
Primal Bound       : +7.48318042813456e+00 (61 solutions)
Dual Bound         : +7.48318042813456e+00
Gap                : 0.00 %

written transformed problem to file <results_rootrelaxation/bin012_070_013.srr.lp>
written transformed problem to file <results_rootrelaxation/bin012_070_013.srr.cip>


SCIP version 8.0.3.5 [precision: 8 byte] [memory: block] [mode: optimized] [LP solver: Soplex 6.0.1.3] [GitHash: 438792519e]
Copyright (c) 2002-2023 Zuse Institute Berlin (ZIB)

External libraries: 
  Readline 8.1         GNU library for command line editing (gnu.org/s/readline)
  Soplex 6.0.1.3       Linear Programming Solver developed at Zuse Institute Berlin (soplex.zib.de) [GitHash: 713be0fe]
  CppAD 20180000.0     Algorithmic Differentiation of C++ algorithms developed by B. Bell (github.com/coin-or/CppAD)
  ZLIB 1.2.11          General purpose compression library by J. Gailly and M. Adler (zlib.net)
  bliss 0.77           Computing Graph Automorphism Groups by T. Junttila and P. Kaski (www.tcs.hut.fi/Software/bliss/)

user parameter file <scip.set> not found - using default parameters

srr/relaxation = TRUE

read problem <instances/bin012_070_013.srr>
============

Original problem: 
original problem has 0 variables (0 bin, 0 int, 0 impl, 0 cont) and 77 constraints

presolving:
presolving (1 rounds: 1 fast, 1 medium, 1 exhaustive):
 0 deleted vars, 0 deleted constraints, 0 added constraints, 0 tightened bounds, 0 added holes, 0 changed sides, 0 changed coefficients
 0 implications, 0 cliques
presolved problem has 0 variables (0 bin, 0 int, 0 impl, 0 cont) and 77 constraints
     77 constraints of type <linear>
Presolving Time: 0.00

 time | node  | left  |LP iter|LP it/n|mem/heur|mdpt |vars |cons |rows |cuts |sepa|confs|strbr|  dualbound   | primalbound  |  gap   | compl. 
  0.0s|     1 |     0 |     1 |     - |   710k |   0 |   1 |  77 |  77 |   0 |  0 |   0 |   0 |      --      |      --      |    Inf | unknown
r 0.1s|     1 |     0 |   985 |     - |simplero|   0 | 648 |  77 |  77 |   0 |  0 |   0 |   0 |      --      | 2.847895e+01 |    Inf | unknown
r 0.1s|     1 |     0 |  1009 |     - |simplero|   0 | 659 |  77 |  77 |   0 |  0 |   0 |   0 |      --      | 2.749217e+01 |    Inf | unknown
r 0.1s|     1 |     0 |  1052 |     - |simplero|   0 | 670 |  77 |  77 |   0 |  0 |   0 |   0 |      --      | 2.543954e+01 |    Inf | unknown
r 0.1s|     1 |     0 |  1086 |     - |simplero|   0 | 681 |  77 |  77 |   0 |  0 |   0 |   0 |      --      | 2.284917e+01 |    Inf | unknown
r 0.1s|     1 |     0 |  1099 |     - |simplero|   0 | 681 |  77 |  77 |   0 |  0 |   0 |   0 |      --      | 2.266880e+01 |    Inf | unknown
r 0.1s|     1 |     0 |  1136 |     - |simplero|   0 | 692 |  77 |  77 |   0 |  0 |   0 |   0 |      --      | 2.128300e+01 |    Inf | unknown
r 0.1s|     1 |     0 |  1155 |     - |simplero|   0 | 692 |  77 |  77 |   0 |  0 |   0 |   0 |      --      | 2.112737e+01 |    Inf | unknown
r 0.1s|     1 |     0 |  1181 |     - |simplero|   0 | 703 |  77 |  77 |   0 |  0 |   0 |   0 |      --      | 1.994520e+01 |    Inf | unknown
r 0.1s|     1 |     0 |  1191 |     - |simplero|   0 | 703 |  77 |  77 |   0 |  0 |   0 |   0 |      --      | 1.991439e+01 |    Inf | unknown
r 0.1s|     1 |     0 |  1231 |     - |simplero|   0 | 714 |  77 |  77 |   0 |  0 |   0 |   0 |      --      | 1.854084e+01 |    Inf | unknown
r 0.1s|     1 |     0 |  1279 |     - |simplero|   0 | 714 |  77 |  77 |   0 |  0 |   0 |   0 |      --      | 1.793734e+01 |    Inf | unknown
r 0.1s|     1 |     0 |  1288 |     - |simplero|   0 | 714 |  77 |  77 |   0 |  0 |   0 |   0 |      --      | 1.789317e+01 |    Inf | unknown
r 0.1s|     1 |     0 |  1292 |     - |simplero|   0 | 714 |  77 |  77 |   0 |  0 |   0 |   0 |      --      | 1.788941e+01 |    Inf | unknown
r 0.1s|     1 |     0 |  1335 |     - |simplero|   0 | 725 |  77 |  77 |   0 |  0 |   0 |   0 |      --      | 1.679592e+01 |    Inf | unknown
 time | node  | left  |LP iter|LP it/n|mem/heur|mdpt |vars |cons |rows |cuts |sepa|confs|strbr|  dualbound   | primalbound  |  gap   | compl. 
r 0.1s|     1 |     0 |  1356 |     - |simplero|   0 | 725 |  77 |  77 |   0 |  0 |   0 |   0 |      --      | 1.666064e+01 |    Inf | unknown
r 0.1s|     1 |     0 |  1360 |     - |simplero|   0 | 725 |  77 |  77 |   0 |  0 |   0 |   0 |      --      | 1.665534e+01 |    Inf | unknown
r 0.1s|     1 |     0 |  1362 |     - |simplero|   0 | 725 |  77 |  77 |   0 |  0 |   0 |   0 |      --      | 1.664847e+01 |    Inf | unknown
r 0.1s|     1 |     0 |  1406 |     - |simplero|   0 | 736 |  77 |  77 |   0 |  0 |   0 |   0 |      --      | 1.552371e+01 |    Inf | unknown
r 0.1s|     1 |     0 |  1429 |     - |simplero|   0 | 736 |  77 |  77 |   0 |  0 |   0 |   0 |      --      | 1.529127e+01 |    Inf | unknown
r 0.1s|     1 |     0 |  1439 |     - |simplero|   0 | 736 |  77 |  77 |   0 |  0 |   0 |   0 |      --      | 1.524527e+01 |    Inf | unknown
r 0.1s|     1 |     0 |  1440 |     - |simplero|   0 | 736 |  77 |  77 |   0 |  0 |   0 |   0 |      --      | 1.524432e+01 |    Inf | unknown
r 0.1s|     1 |     0 |  1485 |     - |simplero|   0 | 747 |  77 |  77 |   0 |  0 |   0 |   0 |      --      | 1.422715e+01 |    Inf | unknown
r 0.1s|     1 |     0 |  1547 |     - |simplero|   0 | 747 |  77 |  77 |   0 |  0 |   0 |   0 |      --      | 1.370870e+01 |    Inf | unknown
r 0.1s|     1 |     0 |  1563 |     - |simplero|   0 | 747 |  77 |  77 |   0 |  0 |   0 |   0 |      --      | 1.364862e+01 |    Inf | unknown
r 0.1s|     1 |     0 |  1565 |     - |simplero|   0 | 747 |  77 |  77 |   0 |  0 |   0 |   0 |      --      | 1.364845e+01 |    Inf | unknown
r 0.1s|     1 |     0 |  1626 |     - |simplero|   0 | 758 |  77 |  77 |   0 |  0 |   0 |   0 |      --      | 1.234827e+01 |    Inf | unknown
r 0.1s|     1 |     0 |  1640 |     - |simplero|   0 | 758 |  77 |  77 |   0 |  0 |   0 |   0 |      --      | 1.229957e+01 |    Inf | unknown
r 0.1s|     1 |     0 |  1685 |     - |simplero|   0 | 769 |  77 |  77 |   0 |  0 |   0 |   0 |      --      | 1.154413e+01 |    Inf | unknown
r 0.1s|     1 |     0 |  1710 |     - |simplero|   0 | 769 |  77 |  77 |   0 |  0 |   0 |   0 |      --      | 1.144631e+01 |    Inf | unknown
 time | node  | left  |LP iter|LP it/n|mem/heur|mdpt |vars |cons |rows |cuts |sepa|confs|strbr|  dualbound   | primalbound  |  gap   | compl. 
r 0.1s|     1 |     0 |  1753 |     - |simplero|   0 | 780 |  77 |  77 |   0 |  0 |   0 |   0 |      --      | 1.091394e+01 |    Inf | unknown
r 0.1s|     1 |     0 |  1765 |     - |simplero|   0 | 780 |  77 |  77 |   0 |  0 |   0 |   0 |      --      | 1.087325e+01 |    Inf | unknown
  0.1s|     1 |     0 |  1774 |     - |  3617k |   0 | 780 |  77 |  77 |   0 |  0 |   0 |   0 |      --      | 1.087325e+01 |    Inf | unknown
r 0.1s|     1 |     0 |  1774 |     - |simplero|   0 | 780 |  77 |  77 |   0 |  0 |   0 |   0 |      --      | 1.084129e+01 |    Inf | unknown
r 0.1s|     1 |     0 |  1776 |     - |simplero|   0 | 780 |  77 |  77 |   0 |  0 |   0 |   0 |      --      | 1.083765e+01 |    Inf | unknown
r 0.1s|     1 |     0 |  1804 |     - |simplero|   0 | 791 |  77 |  77 |   0 |  0 |   0 |   0 |      --      | 1.033738e+01 |    Inf | unknown
r 0.1s|     1 |     0 |  1834 |     - |simplero|   0 | 791 |  77 |  77 |   0 |  0 |   0 |   0 |      --      | 9.977166e+00 |    Inf | unknown
r 0.1s|     1 |     0 |  1836 |     - |simplero|   0 | 791 |  77 |  77 |   0 |  0 |   0 |   0 |      --      | 9.974771e+00 |    Inf | unknown
r 0.1s|     1 |     0 |  1873 |     - |simplero|   0 | 802 |  77 |  77 |   0 |  0 |   0 |   0 |      --      | 9.317721e+00 |    Inf | unknown
r 0.1s|     1 |     0 |  1880 |     - |simplero|   0 | 802 |  77 |  77 |   0 |  0 |   0 |   0 |      --      | 9.308951e+00 |    Inf | unknown
r 0.1s|     1 |     0 |  1881 |     - |simplero|   0 | 802 |  77 |  77 |   0 |  0 |   0 |   0 |      --      | 9.308885e+00 |    Inf | unknown
r 0.1s|     1 |     0 |  1899 |     - |simplero|   0 | 813 |  77 |  77 |   0 |  0 |   0 |   0 |      --      | 9.093442e+00 |    Inf | unknown
r 0.1s|     1 |     0 |  1908 |     - |simplero|   0 | 813 |  77 |  77 |   0 |  0 |   0 |   0 |      --      | 9.055164e+00 |    Inf | unknown
r 0.1s|     1 |     0 |  1947 |     - |simplero|   0 | 824 |  77 |  77 |   0 |  0 |   0 |   0 |      --      | 8.705871e+00 |    Inf | unknown
r 0.1s|     1 |     0 |  1966 |     - |simplero|   0 | 824 |  77 |  77 |   0 |  0 |   0 |   0 |      --      | 8.689427e+00 |    Inf | unknown
 time | node  | left  |LP iter|LP it/n|mem/heur|mdpt |vars |cons |rows |cuts |sepa|confs|strbr|  dualbound   | primalbound  |  gap   | compl. 
r 0.1s|     1 |     0 |  2010 |     - |simplero|   0 | 834 |  77 |  77 |   0 |  0 |   0 |   0 |      --      | 8.412196e+00 |    Inf | unknown
r 0.1s|     1 |     0 |  2025 |     - |simplero|   0 | 834 |  77 |  77 |   0 |  0 |   0 |   0 |      --      | 8.387630e+00 |    Inf | unknown
r 0.1s|     1 |     0 |  2049 |     - |simplero|   0 | 845 |  77 |  77 |   0 |  0 |   0 |   0 |      --      | 8.138164e+00 |    Inf | unknown
r 0.1s|     1 |     0 |  2060 |     - |simplero|   0 | 845 |  77 |  77 |   0 |  0 |   0 |   0 |      --      | 8.081155e+00 |    Inf | unknown
r 0.1s|     1 |     0 |  2087 |     - |simplero|   0 | 856 |  77 |  77 |   0 |  0 |   0 |   0 |      --      | 7.880662e+00 |    Inf | unknown
r 0.1s|     1 |     0 |  2091 |     - |simplero|   0 | 856 |  77 |  77 |   0 |  0 |   0 |   0 |      --      | 7.878545e+00 |    Inf | unknown
r 0.1s|     1 |     0 |  2121 |     - |simplero|   0 | 867 |  77 |  77 |   0 |  0 |   0 |   0 |      --      | 7.770630e+00 |    Inf | unknown
r 0.1s|     1 |     0 |  2128 |     - |simplero|   0 | 867 |  77 |  77 |   0 |  0 |   0 |   0 |      --      | 7.766344e+00 |    Inf | unknown
r 0.1s|     1 |     0 |  2148 |     - |simplero|   0 | 878 |  77 |  77 |   0 |  0 |   0 |   0 |      --      | 7.629310e+00 |    Inf | unknown
r 0.1s|     1 |     0 |  2158 |     - |simplero|   0 | 878 |  77 |  77 |   0 |  0 |   0 |   0 |      --      | 7.608338e+00 |    Inf | unknown
r 0.1s|     1 |     0 |  2179 |     - |simplero|   0 | 885 |  77 |  77 |   0 |  0 |   0 |   0 |      --      | 7.576370e+00 |    Inf | unknown
r 0.1s|     1 |     0 |  2182 |     - |simplero|   0 | 885 |  77 |  77 |   0 |  0 |   0 |   0 |      --      | 7.574026e+00 |    Inf | unknown
r 0.1s|     1 |     0 |  2198 |     - |simplero|   0 | 890 |  77 |  77 |   0 |  0 |   0 |   0 |      --      | 7.504702e+00 |    Inf | unknown
r 0.1s|     1 |     0 |  2211 |     - |simplero|   0 | 897 |  77 |  77 |   0 |  0 |   0 |   0 |      --      | 7.486085e+00 |    Inf | unknown
r 0.1s|     1 |     0 |  2217 |     - |simplero|   0 | 897 |  77 |  77 |   0 |  0 |   0 |   0 |      --      | 7.484932e+00 |    Inf | unknown
 time | node  | left  |LP iter|LP it/n|mem/heur|mdpt |vars |cons |rows |cuts |sepa|confs|strbr|  dualbound   | primalbound  |  gap   | compl. 
r 0.1s|     1 |     0 |  2222 |     - |simplero|   0 | 900 |  77 |  77 |   0 |  0 |   0 |   0 |      --      | 7.483461e+00 |    Inf | unknown
r 0.1s|     1 |     0 |  2224 |     - |simplero|   0 | 901 |  77 |  77 |   0 |  0 |   0 |   0 |      --      | 7.483221e+00 |    Inf | unknown
r 0.1s|     1 |     0 |  2227 |     - |simplero|   0 | 903 |  77 |  77 |   0 |  0 |   0 |   0 |      --      | 7.483180e+00 |    Inf | unknown
  0.1s|     1 |     0 |  2227 |     - |  4431k |   0 | 903 |  77 |  77 |   0 |  0 |   0 |   0 | 7.483180e+00 | 7.483180e+00 |   0.00%| unknown
  0.1s|     1 |     0 |  2227 |     - |  4431k |   0 | 903 |  77 |  77 |   0 |  0 |   0 |   0 | 7.483180e+00 | 7.483180e+00 |   0.00%| unknown

SCIP Status        : problem is solved [optimal solution found]
Solving Time (sec) : 0.12
Solving Nodes      : 1
Primal Bound       : +7.48318042813456e+00 (61 solutions)
Dual Bound         : +7.48318042813456e+00
Gap                : 0.00 %

written transformed problem to file <results_rootrelaxation/bin012_070_013.srr.lp>
written transformed problem to file <results_rootrelaxation/bin012_070_013.srr.cip>

written solution information to file <results_rootrelaxation/bin012_070_013.srr.sol>



